\ LP format - for model browsing. Use MPS format to capture full model detail.
Maximize
  9 x_1 + 5 x_2 + 5 x_3 + 9 x_4 + 9 x_5
Subject To
 C_1: 2 x_1 + x_2 + 7 x_3 + 4 x_4 + 9 x_5 <= 11
 C_2: 6 x_1 + 5 x_2 + 10 x_3 + 5 x_4 + 3 x_5 <= 14
 C_3: 5 x_1 + 8 x_2 + 2 x_3 + 5 x_4 + 6 x_5 <= 13
 C_4: 7 x_1 + 5 x_2 + 9 x_3 + 4 x_4 + 5 x_5 <= 15
 C_5: x_1 + 7 x_2 + 8 x_3 + x_4 + 10 x_5 <= 13
Bounds
Binaries
 x_1 x_2 x_3 x_4 x_5
End
